c turning on binary mode checking
c parsing input formula with 202048 variables and 780985 clauses
c finished parsing, read 16999910 bytes from proof file
c detected empty clause; start verification via backward checking
c 15886 of 780985 clauses in core                            
c 21361 of 455296 lemmas in core using 245104 resolution steps
c 0 RAT lemmas in core; 1849 redundant literals in core lemmas
s VERIFIED
c verification time: 1.858 seconds
